1  13
2  12
3  14
4  20
5  19
6  11
7  12
8  16
9  6
10  9
11  11
12  20
13  4
14  2
15  15
16  1
17  12
18  10
19  17
20  20
21  21
22  10
23  21
24  2
25  9
26  8
27  12
28  10
29  1
30  1
31  1
32  7
33  7
34  7
35  8
36  1
37  8
38  15
39  9
40  1
41  1
42  4
43  1
44  19
45  8
46  21
47  10
48  10
49  8
50  19
51  16
52  21
53  18
54  10
55  21
56  12
57  6
58  20
59  21
60  20
61  21
62  16
63  19
64  10
65  17
66  15
67  13
68  7
69  12
70  21
71  21
72  21
73  5
74  16
75  17
76  13
77  18
78  16
79  10
80  4
81  8
82  10
83  2
84  2
85  13
86  15
87  5
88  14
89  19
90  15
91  16
92  4
93  5
94  19
95  20
96  16
97  4
98  10
99  18
100  3
101  2
102  11
103  12
104  4
105  19
106  13
107  14
108  14
109  14
110  14
111  14
112  10
113  19
114  14
115  1
116  3
117  2
118  3
119  3
120  9
121  4
122  4
123  19
124  13
125  16
126  18
127  15
128  19
129  20
130  17
131  18
132  18
133  18
134  16
135  16
136  21
137  12
138  10
139  6
140  17
141  6
142  5
143  10
144  18
145  13
146  6
147  10
148  21
149  21
150  21
151  16
152  6
153  6
154  6
155  5
156  21
157  8
158  7
159  16
160  3
161  13
162  2
163  5
164  7
165  15
166  9
167  8
168  4
169  13
170  2
171  18
172  19
173  11
174  4
175  4
176  19
177  10
178  20
179  4
180  4
181  20